Results/Experiment 1 Results/Existing Benchmark/RES_20/i-20-75-18.txt
solutions: 2 nodes: 3  modelTime: 135  solveTime: 15  totalTime: 153  modelSize: 7358  readTime: 3 matchingSize: 10
