Results/Experiment 2 Results/Existing Benchmark/i-20-75-18.lp
clingo version 5.4.0
Reading from tempSRTISolver.lp ...
Solving...
Answer: 1
matched(13,2) matched(6,3) matched(19,4) matched(14,5) matched(3,6) matched(16,8) matched(1,9) matched(20,11) matched(15,12) matched(2,13) matched(7,17) matched(10,18) matched(4,19) matched(11,20) matched(9,1) matched(17,7) matched(18,10) matched(5,14) matched(12,15) matched(8,16)
Optimization: 80
OPTIMUM FOUND

Models       : 1
  Optimum    : yes
Optimization : 80
Calls        : 1
Time         : 0.033s (Solving: 0.00s 1st Model: 0.00s Unsat: 0.00s)
CPU Time     : 0.031s
